<?xml version = "1.0" encoding="UTF-8" standalone="yes"?>
<CPLEXSolution version="1.2">
 <header
   problemName="horner_bezier_surf_dfg__12.lp"
   solutionName="incumbent"
   solutionIndex="-1"
   objectiveValue="12"
   solutionTypeValue="3"
   solutionTypeString="primal"
   solutionStatusValue="101"
   solutionStatusString="integer optimal solution"
   solutionMethodString="mip"
   primalFeasible="1"
   dualFeasible="1"
   MIPNodes="0"
   MIPIterations="256"
   writeLevel="1"/>
 <quality
   epInt="1.0000000000000001e-05"
   epRHS="9.9999999999999995e-07"
   maxIntInfeas="0"
   maxPrimalInfeas="0"
   maxX="12"
   maxSlack="12"/>
 <linearConstraints>
  <constraint name="c1" index="0" slack="0"/>
  <constraint name="c2" index="1" slack="10"/>
  <constraint name="c3" index="2" slack="12"/>
  <constraint name="c4" index="3" slack="12"/>
  <constraint name="c5" index="4" slack="12"/>
  <constraint name="c6" index="5" slack="12"/>
  <constraint name="c7" index="6" slack="12"/>
  <constraint name="c8" index="7" slack="12"/>
  <constraint name="c9" index="8" slack="12"/>
  <constraint name="c10" index="9" slack="12"/>
  <constraint name="c11" index="10" slack="12"/>
  <constraint name="c12" index="11" slack="12"/>
  <constraint name="c13" index="12" slack="12"/>
  <constraint name="c14" index="13" slack="12"/>
  <constraint name="c15" index="14" slack="12"/>
  <constraint name="c16" index="15" slack="12"/>
  <constraint name="c17" index="16" slack="12"/>
  <constraint name="c18" index="17" slack="12"/>
  <constraint name="c19" index="18" slack="12"/>
  <constraint name="c20" index="19" slack="0"/>
  <constraint name="c21" index="20" slack="9"/>
  <constraint name="c22" index="21" slack="12"/>
  <constraint name="c23" index="22" slack="12"/>
  <constraint name="c24" index="23" slack="12"/>
  <constraint name="c25" index="24" slack="12"/>
  <constraint name="c26" index="25" slack="12"/>
  <constraint name="c27" index="26" slack="12"/>
  <constraint name="c28" index="27" slack="12"/>
  <constraint name="c29" index="28" slack="12"/>
  <constraint name="c30" index="29" slack="12"/>
  <constraint name="c31" index="30" slack="12"/>
  <constraint name="c32" index="31" slack="12"/>
  <constraint name="c33" index="32" slack="12"/>
  <constraint name="c34" index="33" slack="12"/>
  <constraint name="c35" index="34" slack="12"/>
  <constraint name="c36" index="35" slack="12"/>
  <constraint name="c37" index="36" slack="0"/>
  <constraint name="c38" index="37" slack="7"/>
  <constraint name="c39" index="38" slack="12"/>
  <constraint name="c40" index="39" slack="12"/>
  <constraint name="c41" index="40" slack="12"/>
  <constraint name="c42" index="41" slack="12"/>
  <constraint name="c43" index="42" slack="12"/>
  <constraint name="c44" index="43" slack="12"/>
  <constraint name="c45" index="44" slack="12"/>
  <constraint name="c46" index="45" slack="12"/>
  <constraint name="c47" index="46" slack="12"/>
  <constraint name="c48" index="47" slack="12"/>
  <constraint name="c49" index="48" slack="12"/>
  <constraint name="c50" index="49" slack="12"/>
  <constraint name="c51" index="50" slack="12"/>
  <constraint name="c52" index="51" slack="12"/>
  <constraint name="c53" index="52" slack="0"/>
  <constraint name="c54" index="53" slack="6"/>
  <constraint name="c55" index="54" slack="12"/>
  <constraint name="c56" index="55" slack="12"/>
  <constraint name="c57" index="56" slack="12"/>
  <constraint name="c58" index="57" slack="12"/>
  <constraint name="c59" index="58" slack="12"/>
  <constraint name="c60" index="59" slack="12"/>
  <constraint name="c61" index="60" slack="12"/>
  <constraint name="c62" index="61" slack="12"/>
  <constraint name="c63" index="62" slack="12"/>
  <constraint name="c64" index="63" slack="12"/>
  <constraint name="c65" index="64" slack="12"/>
  <constraint name="c66" index="65" slack="12"/>
  <constraint name="c67" index="66" slack="0"/>
  <constraint name="c68" index="67" slack="5"/>
  <constraint name="c69" index="68" slack="12"/>
  <constraint name="c70" index="69" slack="12"/>
  <constraint name="c71" index="70" slack="12"/>
  <constraint name="c72" index="71" slack="12"/>
  <constraint name="c73" index="72" slack="12"/>
  <constraint name="c74" index="73" slack="12"/>
  <constraint name="c75" index="74" slack="12"/>
  <constraint name="c76" index="75" slack="12"/>
  <constraint name="c77" index="76" slack="12"/>
  <constraint name="c78" index="77" slack="12"/>
  <constraint name="c79" index="78" slack="12"/>
  <constraint name="c80" index="79" slack="0"/>
  <constraint name="c81" index="80" slack="3"/>
  <constraint name="c82" index="81" slack="12"/>
  <constraint name="c83" index="82" slack="12"/>
  <constraint name="c84" index="83" slack="12"/>
  <constraint name="c85" index="84" slack="12"/>
  <constraint name="c86" index="85" slack="12"/>
  <constraint name="c87" index="86" slack="12"/>
  <constraint name="c88" index="87" slack="12"/>
  <constraint name="c89" index="88" slack="12"/>
  <constraint name="c90" index="89" slack="12"/>
  <constraint name="c91" index="90" slack="12"/>
  <constraint name="c92" index="91" slack="0"/>
  <constraint name="c93" index="92" slack="12"/>
  <constraint name="c94" index="93" slack="12"/>
  <constraint name="c95" index="94" slack="12"/>
  <constraint name="c96" index="95" slack="12"/>
  <constraint name="c97" index="96" slack="12"/>
  <constraint name="c98" index="97" slack="5"/>
  <constraint name="c99" index="98" slack="12"/>
  <constraint name="c100" index="99" slack="12"/>
  <constraint name="c101" index="100" slack="12"/>
  <constraint name="c102" index="101" slack="12"/>
  <constraint name="c103" index="102" slack="12"/>
  <constraint name="c104" index="103" slack="12"/>
  <constraint name="c105" index="104" slack="12"/>
  <constraint name="c106" index="105" slack="12"/>
  <constraint name="c107" index="106" slack="12"/>
  <constraint name="c108" index="107" slack="12"/>
  <constraint name="c109" index="108" slack="12"/>
  <constraint name="c110" index="109" slack="12"/>
  <constraint name="c111" index="110" slack="0"/>
  <constraint name="c112" index="111" slack="10"/>
  <constraint name="c113" index="112" slack="12"/>
  <constraint name="c114" index="113" slack="12"/>
  <constraint name="c115" index="114" slack="12"/>
  <constraint name="c116" index="115" slack="12"/>
  <constraint name="c117" index="116" slack="12"/>
  <constraint name="c118" index="117" slack="12"/>
  <constraint name="c119" index="118" slack="12"/>
  <constraint name="c120" index="119" slack="12"/>
  <constraint name="c121" index="120" slack="12"/>
  <constraint name="c122" index="121" slack="12"/>
  <constraint name="c123" index="122" slack="12"/>
  <constraint name="c124" index="123" slack="12"/>
  <constraint name="c125" index="124" slack="12"/>
  <constraint name="c126" index="125" slack="12"/>
  <constraint name="c127" index="126" slack="12"/>
  <constraint name="c128" index="127" slack="12"/>
  <constraint name="c129" index="128" slack="12"/>
  <constraint name="c130" index="129" slack="0"/>
  <constraint name="c131" index="130" slack="12"/>
  <constraint name="c132" index="131" slack="8"/>
  <constraint name="c133" index="132" slack="12"/>
  <constraint name="c134" index="133" slack="12"/>
  <constraint name="c135" index="134" slack="12"/>
  <constraint name="c136" index="135" slack="12"/>
  <constraint name="c137" index="136" slack="12"/>
  <constraint name="c138" index="137" slack="12"/>
  <constraint name="c139" index="138" slack="12"/>
  <constraint name="c140" index="139" slack="12"/>
  <constraint name="c141" index="140" slack="12"/>
  <constraint name="c142" index="141" slack="12"/>
  <constraint name="c143" index="142" slack="12"/>
  <constraint name="c144" index="143" slack="12"/>
  <constraint name="c145" index="144" slack="12"/>
  <constraint name="c146" index="145" slack="12"/>
  <constraint name="c147" index="146" slack="0"/>
  <constraint name="c148" index="147" slack="12"/>
  <constraint name="c149" index="148" slack="12"/>
  <constraint name="c150" index="149" slack="12"/>
  <constraint name="c151" index="150" slack="12"/>
  <constraint name="c152" index="151" slack="4"/>
  <constraint name="c153" index="152" slack="12"/>
  <constraint name="c154" index="153" slack="12"/>
  <constraint name="c155" index="154" slack="12"/>
  <constraint name="c156" index="155" slack="12"/>
  <constraint name="c157" index="156" slack="12"/>
  <constraint name="c158" index="157" slack="12"/>
  <constraint name="c159" index="158" slack="12"/>
  <constraint name="c160" index="159" slack="12"/>
  <constraint name="c161" index="160" slack="12"/>
  <constraint name="c162" index="161" slack="12"/>
  <constraint name="c163" index="162" slack="0"/>
  <constraint name="c164" index="163" slack="12"/>
  <constraint name="c165" index="164" slack="12"/>
  <constraint name="c166" index="165" slack="12"/>
  <constraint name="c167" index="166" slack="12"/>
  <constraint name="c168" index="167" slack="2"/>
  <constraint name="c169" index="168" slack="12"/>
  <constraint name="c170" index="169" slack="12"/>
  <constraint name="c171" index="170" slack="12"/>
  <constraint name="c172" index="171" slack="12"/>
  <constraint name="c173" index="172" slack="12"/>
  <constraint name="c174" index="173" slack="12"/>
  <constraint name="c175" index="174" slack="12"/>
  <constraint name="c176" index="175" slack="12"/>
  <constraint name="c177" index="176" slack="12"/>
  <constraint name="c178" index="177" slack="0"/>
  <constraint name="c179" index="178" slack="12"/>
  <constraint name="c180" index="179" slack="1"/>
  <constraint name="c181" index="180" slack="12"/>
  <constraint name="c182" index="181" slack="12"/>
  <constraint name="c183" index="182" slack="12"/>
  <constraint name="c184" index="183" slack="12"/>
  <constraint name="c185" index="184" slack="12"/>
  <constraint name="c186" index="185" slack="12"/>
  <constraint name="c187" index="186" slack="12"/>
  <constraint name="c188" index="187" slack="0"/>
  <constraint name="c189" index="188" slack="12"/>
  <constraint name="c190" index="189" slack="12"/>
  <constraint name="c191" index="190" slack="8"/>
  <constraint name="c192" index="191" slack="12"/>
  <constraint name="c193" index="192" slack="12"/>
  <constraint name="c194" index="193" slack="12"/>
  <constraint name="c195" index="194" slack="12"/>
  <constraint name="c196" index="195" slack="12"/>
  <constraint name="c197" index="196" slack="12"/>
  <constraint name="c198" index="197" slack="12"/>
  <constraint name="c199" index="198" slack="12"/>
  <constraint name="c200" index="199" slack="12"/>
  <constraint name="c201" index="200" slack="12"/>
  <constraint name="c202" index="201" slack="12"/>
  <constraint name="c203" index="202" slack="12"/>
  <constraint name="c204" index="203" slack="12"/>
  <constraint name="c205" index="204" slack="12"/>
  <constraint name="c206" index="205" slack="12"/>
  <constraint name="c207" index="206" slack="0"/>
  <constraint name="c208" index="207" slack="12"/>
  <constraint name="c209" index="208" slack="12"/>
  <constraint name="c210" index="209" slack="7"/>
  <constraint name="c211" index="210" slack="12"/>
  <constraint name="c212" index="211" slack="12"/>
  <constraint name="c213" index="212" slack="12"/>
  <constraint name="c214" index="213" slack="12"/>
  <constraint name="c215" index="214" slack="12"/>
  <constraint name="c216" index="215" slack="12"/>
  <constraint name="c217" index="216" slack="12"/>
  <constraint name="c218" index="217" slack="12"/>
  <constraint name="c219" index="218" slack="12"/>
  <constraint name="c220" index="219" slack="12"/>
  <constraint name="c221" index="220" slack="12"/>
  <constraint name="c222" index="221" slack="12"/>
  <constraint name="c223" index="222" slack="12"/>
  <constraint name="c224" index="223" slack="0"/>
  <constraint name="c225" index="224" slack="12"/>
  <constraint name="c226" index="225" slack="12"/>
  <constraint name="c227" index="226" slack="5"/>
  <constraint name="c228" index="227" slack="12"/>
  <constraint name="c229" index="228" slack="12"/>
  <constraint name="c230" index="229" slack="12"/>
  <constraint name="c231" index="230" slack="12"/>
  <constraint name="c232" index="231" slack="12"/>
  <constraint name="c233" index="232" slack="12"/>
  <constraint name="c234" index="233" slack="12"/>
  <constraint name="c235" index="234" slack="12"/>
  <constraint name="c236" index="235" slack="12"/>
  <constraint name="c237" index="236" slack="12"/>
  <constraint name="c238" index="237" slack="12"/>
  <constraint name="c239" index="238" slack="12"/>
  <constraint name="c240" index="239" slack="0"/>
  <constraint name="c241" index="240" slack="12"/>
  <constraint name="c242" index="241" slack="12"/>
  <constraint name="c243" index="242" slack="12"/>
  <constraint name="c244" index="243" slack="12"/>
  <constraint name="c245" index="244" slack="2"/>
  <constraint name="c246" index="245" slack="12"/>
  <constraint name="c247" index="246" slack="12"/>
  <constraint name="c248" index="247" slack="12"/>
  <constraint name="c249" index="248" slack="12"/>
  <constraint name="c250" index="249" slack="12"/>
  <constraint name="c251" index="250" slack="12"/>
  <constraint name="c252" index="251" slack="12"/>
  <constraint name="c253" index="252" slack="12"/>
  <constraint name="c254" index="253" slack="0"/>
  <constraint name="c255" index="254" slack="12"/>
  <constraint name="c256" index="255" slack="0"/>
  <constraint name="c257" index="256" slack="12"/>
  <constraint name="c258" index="257" slack="12"/>
  <constraint name="c259" index="258" slack="12"/>
  <constraint name="c260" index="259" slack="12"/>
  <constraint name="c261" index="260" slack="12"/>
  <constraint name="c262" index="261" slack="12"/>
  <constraint name="c263" index="262" slack="0"/>
  <constraint name="c264" index="263" slack="11"/>
  <constraint name="c265" index="264" slack="12"/>
  <constraint name="c266" index="265" slack="12"/>
  <constraint name="c267" index="266" slack="12"/>
  <constraint name="c268" index="267" slack="12"/>
  <constraint name="c269" index="268" slack="12"/>
  <constraint name="c270" index="269" slack="12"/>
  <constraint name="c271" index="270" slack="12"/>
  <constraint name="c272" index="271" slack="12"/>
  <constraint name="c273" index="272" slack="12"/>
  <constraint name="c274" index="273" slack="12"/>
  <constraint name="c275" index="274" slack="12"/>
  <constraint name="c276" index="275" slack="12"/>
  <constraint name="c277" index="276" slack="12"/>
  <constraint name="c278" index="277" slack="12"/>
  <constraint name="c279" index="278" slack="12"/>
  <constraint name="c280" index="279" slack="12"/>
  <constraint name="c281" index="280" slack="12"/>
  <constraint name="c282" index="281" slack="0"/>
  <constraint name="c283" index="282" slack="0"/>
  <constraint name="c284" index="283" slack="0"/>
  <constraint name="c285" index="284" slack="1"/>
  <constraint name="c286" index="285" slack="0"/>
  <constraint name="c287" index="286" slack="0"/>
  <constraint name="c288" index="287" slack="0"/>
  <constraint name="c289" index="288" slack="1"/>
  <constraint name="c290" index="289" slack="0"/>
  <constraint name="c291" index="290" slack="0"/>
  <constraint name="c292" index="291" slack="0"/>
  <constraint name="c293" index="292" slack="0"/>
  <constraint name="c294" index="293" slack="0"/>
  <constraint name="c295" index="294" slack="1"/>
  <constraint name="c296" index="295" slack="1"/>
  <constraint name="c297" index="296" slack="0"/>
  <constraint name="c298" index="297" slack="0"/>
  <constraint name="c299" index="298" slack="1"/>
  <constraint name="c300" index="299" slack="0"/>
  <constraint name="c301" index="300" slack="2"/>
  <constraint name="c302" index="301" slack="0"/>
  <constraint name="c303" index="302" slack="2"/>
  <constraint name="c304" index="303" slack="1"/>
  <constraint name="c305" index="304" slack="2"/>
  <constraint name="c306" index="305" slack="1"/>
  <constraint name="c307" index="306" slack="2"/>
  <constraint name="c308" index="307" slack="1"/>
  <constraint name="c309" index="308" slack="2"/>
  <constraint name="c310" index="309" slack="1"/>
  <constraint name="c311" index="310" slack="2"/>
  <constraint name="c312" index="311" slack="1"/>
  <constraint name="c313" index="312" slack="2"/>
  <constraint name="c314" index="313" slack="1"/>
  <constraint name="c315" index="314" slack="2"/>
  <constraint name="c316" index="315" slack="0"/>
  <constraint name="c317" index="316" slack="0"/>
  <constraint name="c318" index="317" slack="0"/>
  <constraint name="c319" index="318" slack="0"/>
  <constraint name="c320" index="319" slack="0"/>
  <constraint name="c321" index="320" slack="1"/>
  <constraint name="c322" index="321" slack="1"/>
  <constraint name="c323" index="322" slack="1"/>
  <constraint name="c324" index="323" slack="3"/>
  <constraint name="c325" index="324" slack="0"/>
  <constraint name="c326" index="325" slack="0"/>
  <constraint name="c327" index="326" slack="0"/>
  <constraint name="c328" index="327" slack="0"/>
  <constraint name="c329" index="328" slack="0"/>
  <constraint name="c330" index="329" slack="2"/>
  <constraint name="c331" index="330" slack="1"/>
 </linearConstraints>
 <variables>
  <variable name="L" index="0" value="12"/>
  <variable name="x0,1" index="1" value="1"/>
  <variable name="x0,2" index="2" value="0"/>
  <variable name="x0,3" index="3" value="-0"/>
  <variable name="x0,4" index="4" value="-0"/>
  <variable name="x0,5" index="5" value="-0"/>
  <variable name="x0,6" index="6" value="-0"/>
  <variable name="x0,7" index="7" value="-0"/>
  <variable name="x0,8" index="8" value="-0"/>
  <variable name="x0,9" index="9" value="0"/>
  <variable name="x0,10" index="10" value="0"/>
  <variable name="x0,11" index="11" value="0"/>
  <variable name="x0,12" index="12" value="0"/>
  <variable name="x0,13" index="13" value="0"/>
  <variable name="x0,14" index="14" value="0"/>
  <variable name="x0,15" index="15" value="0"/>
  <variable name="x0,16" index="16" value="0"/>
  <variable name="x0,17" index="17" value="0"/>
  <variable name="x0,18" index="18" value="0"/>
  <variable name="x1,3" index="19" value="1"/>
  <variable name="x1,4" index="20" value="-0"/>
  <variable name="x1,5" index="21" value="-0"/>
  <variable name="x1,6" index="22" value="-0"/>
  <variable name="x1,7" index="23" value="-0"/>
  <variable name="x1,8" index="24" value="-0"/>
  <variable name="x1,9" index="25" value="0"/>
  <variable name="x1,10" index="26" value="-0"/>
  <variable name="x1,11" index="27" value="0"/>
  <variable name="x1,12" index="28" value="0"/>
  <variable name="x1,13" index="29" value="0"/>
  <variable name="x1,14" index="30" value="0"/>
  <variable name="x1,15" index="31" value="0"/>
  <variable name="x1,16" index="32" value="0"/>
  <variable name="x1,17" index="33" value="0"/>
  <variable name="x1,18" index="34" value="0"/>
  <variable name="x2,4" index="35" value="1"/>
  <variable name="x2,5" index="36" value="-0"/>
  <variable name="x2,6" index="37" value="-0"/>
  <variable name="x2,7" index="38" value="-0"/>
  <variable name="x2,8" index="39" value="-0"/>
  <variable name="x2,9" index="40" value="-0"/>
  <variable name="x2,10" index="41" value="0"/>
  <variable name="x2,11" index="42" value="-0"/>
  <variable name="x2,12" index="43" value="0"/>
  <variable name="x2,13" index="44" value="0"/>
  <variable name="x2,14" index="45" value="0"/>
  <variable name="x2,15" index="46" value="0"/>
  <variable name="x2,16" index="47" value="0"/>
  <variable name="x2,17" index="48" value="0"/>
  <variable name="x2,18" index="49" value="0"/>
  <variable name="x3,6" index="50" value="1"/>
  <variable name="x3,7" index="51" value="-0"/>
  <variable name="x3,8" index="52" value="0"/>
  <variable name="x3,9" index="53" value="0"/>
  <variable name="x3,10" index="54" value="-0"/>
  <variable name="x3,11" index="55" value="-0"/>
  <variable name="x3,12" index="56" value="-0"/>
  <variable name="x3,13" index="57" value="-0"/>
  <variable name="x3,14" index="58" value="0"/>
  <variable name="x3,15" index="59" value="0"/>
  <variable name="x3,16" index="60" value="0"/>
  <variable name="x3,17" index="61" value="0"/>
  <variable name="x3,18" index="62" value="0"/>
  <variable name="x4,7" index="63" value="1"/>
  <variable name="x4,8" index="64" value="-0"/>
  <variable name="x4,9" index="65" value="-0"/>
  <variable name="x4,10" index="66" value="-0"/>
  <variable name="x4,11" index="67" value="-0"/>
  <variable name="x4,12" index="68" value="-0"/>
  <variable name="x4,13" index="69" value="-0"/>
  <variable name="x4,14" index="70" value="0"/>
  <variable name="x4,15" index="71" value="0"/>
  <variable name="x4,16" index="72" value="0"/>
  <variable name="x4,17" index="73" value="0"/>
  <variable name="x4,18" index="74" value="0"/>
  <variable name="x5,8" index="75" value="1"/>
  <variable name="x5,9" index="76" value="-0"/>
  <variable name="x5,10" index="77" value="-0"/>
  <variable name="x5,11" index="78" value="0"/>
  <variable name="x5,12" index="79" value="-0"/>
  <variable name="x5,13" index="80" value="-0"/>
  <variable name="x5,14" index="81" value="-0"/>
  <variable name="x5,15" index="82" value="-0"/>
  <variable name="x5,16" index="83" value="0"/>
  <variable name="x5,17" index="84" value="0"/>
  <variable name="x5,18" index="85" value="0"/>
  <variable name="x6,1" index="86" value="-0"/>
  <variable name="x6,2" index="87" value="0"/>
  <variable name="x6,3" index="88" value="0"/>
  <variable name="x6,4" index="89" value="-0"/>
  <variable name="x6,5" index="90" value="-0"/>
  <variable name="x6,6" index="91" value="1"/>
  <variable name="x6,7" index="92" value="-0"/>
  <variable name="x6,8" index="93" value="-0"/>
  <variable name="x6,9" index="94" value="-0"/>
  <variable name="x6,10" index="95" value="-0"/>
  <variable name="x6,11" index="96" value="-0"/>
  <variable name="x6,12" index="97" value="-0"/>
  <variable name="x6,13" index="98" value="-0"/>
  <variable name="x6,14" index="99" value="0"/>
  <variable name="x6,15" index="100" value="0"/>
  <variable name="x6,16" index="101" value="0"/>
  <variable name="x6,17" index="102" value="0"/>
  <variable name="x6,18" index="103" value="0"/>
  <variable name="x7,1" index="104" value="1"/>
  <variable name="x7,2" index="105" value="0"/>
  <variable name="x7,3" index="106" value="-0"/>
  <variable name="x7,4" index="107" value="-0"/>
  <variable name="x7,5" index="108" value="-0"/>
  <variable name="x7,6" index="109" value="-0"/>
  <variable name="x7,7" index="110" value="-0"/>
  <variable name="x7,8" index="111" value="-0"/>
  <variable name="x7,9" index="112" value="-0"/>
  <variable name="x7,10" index="113" value="-0"/>
  <variable name="x7,11" index="114" value="-0"/>
  <variable name="x7,12" index="115" value="0"/>
  <variable name="x7,13" index="116" value="0"/>
  <variable name="x7,14" index="117" value="0"/>
  <variable name="x7,15" index="118" value="0"/>
  <variable name="x7,16" index="119" value="0"/>
  <variable name="x7,17" index="120" value="0"/>
  <variable name="x7,18" index="121" value="0"/>
  <variable name="x8,3" index="122" value="0"/>
  <variable name="x8,4" index="123" value="1"/>
  <variable name="x8,5" index="124" value="-0"/>
  <variable name="x8,6" index="125" value="-0"/>
  <variable name="x8,7" index="126" value="-0"/>
  <variable name="x8,8" index="127" value="-0"/>
  <variable name="x8,9" index="128" value="-0"/>
  <variable name="x8,10" index="129" value="-0"/>
  <variable name="x8,11" index="130" value="-0"/>
  <variable name="x8,12" index="131" value="-0"/>
  <variable name="x8,13" index="132" value="-0"/>
  <variable name="x8,14" index="133" value="0"/>
  <variable name="x8,15" index="134" value="0"/>
  <variable name="x8,16" index="135" value="0"/>
  <variable name="x8,17" index="136" value="0"/>
  <variable name="x8,18" index="137" value="0"/>
  <variable name="x9,4" index="138" value="-0"/>
  <variable name="x9,5" index="139" value="0"/>
  <variable name="x9,6" index="140" value="-0"/>
  <variable name="x9,7" index="141" value="-0"/>
  <variable name="x9,8" index="142" value="1"/>
  <variable name="x9,9" index="143" value="-0"/>
  <variable name="x9,10" index="144" value="-0"/>
  <variable name="x9,11" index="145" value="-0"/>
  <variable name="x9,12" index="146" value="-0"/>
  <variable name="x9,13" index="147" value="-0"/>
  <variable name="x9,14" index="148" value="-0"/>
  <variable name="x9,15" index="149" value="0"/>
  <variable name="x9,16" index="150" value="0"/>
  <variable name="x9,17" index="151" value="0"/>
  <variable name="x9,18" index="152" value="0"/>
  <variable name="x10,5" index="153" value="-0"/>
  <variable name="x10,6" index="154" value="-0"/>
  <variable name="x10,7" index="155" value="-0"/>
  <variable name="x10,8" index="156" value="0"/>
  <variable name="x10,9" index="157" value="1"/>
  <variable name="x10,10" index="158" value="-0"/>
  <variable name="x10,11" index="159" value="-0"/>
  <variable name="x10,12" index="160" value="-0"/>
  <variable name="x10,13" index="161" value="-0"/>
  <variable name="x10,14" index="162" value="-0"/>
  <variable name="x10,15" index="163" value="-0"/>
  <variable name="x10,16" index="164" value="0"/>
  <variable name="x10,17" index="165" value="0"/>
  <variable name="x10,18" index="166" value="0"/>
  <variable name="x11,10" index="167" value="0"/>
  <variable name="x11,11" index="168" value="1"/>
  <variable name="x11,12" index="169" value="-0"/>
  <variable name="x11,13" index="170" value="0"/>
  <variable name="x11,14" index="171" value="0"/>
  <variable name="x11,15" index="172" value="-0"/>
  <variable name="x11,16" index="173" value="-0"/>
  <variable name="x11,17" index="174" value="-0"/>
  <variable name="x11,18" index="175" value="0"/>
  <variable name="x12,1" index="176" value="0"/>
  <variable name="x12,2" index="177" value="0"/>
  <variable name="x12,3" index="178" value="1"/>
  <variable name="x12,4" index="179" value="-0"/>
  <variable name="x12,5" index="180" value="-0"/>
  <variable name="x12,6" index="181" value="-0"/>
  <variable name="x12,7" index="182" value="-0"/>
  <variable name="x12,8" index="183" value="-0"/>
  <variable name="x12,9" index="184" value="-0"/>
  <variable name="x12,10" index="185" value="-0"/>
  <variable name="x12,11" index="186" value="-0"/>
  <variable name="x12,12" index="187" value="-0"/>
  <variable name="x12,13" index="188" value="0"/>
  <variable name="x12,14" index="189" value="0"/>
  <variable name="x12,15" index="190" value="0"/>
  <variable name="x12,16" index="191" value="0"/>
  <variable name="x12,17" index="192" value="0"/>
  <variable name="x12,18" index="193" value="0"/>
  <variable name="x13,3" index="194" value="-0"/>
  <variable name="x13,4" index="195" value="0"/>
  <variable name="x13,5" index="196" value="1"/>
  <variable name="x13,6" index="197" value="-0"/>
  <variable name="x13,7" index="198" value="-0"/>
  <variable name="x13,8" index="199" value="-0"/>
  <variable name="x13,9" index="200" value="-0"/>
  <variable name="x13,10" index="201" value="-0"/>
  <variable name="x13,11" index="202" value="-0"/>
  <variable name="x13,12" index="203" value="-0"/>
  <variable name="x13,13" index="204" value="-0"/>
  <variable name="x13,14" index="205" value="-0"/>
  <variable name="x13,15" index="206" value="0"/>
  <variable name="x13,16" index="207" value="0"/>
  <variable name="x13,17" index="208" value="0"/>
  <variable name="x13,18" index="209" value="0"/>
  <variable name="x14,4" index="210" value="-0"/>
  <variable name="x14,5" index="211" value="-0"/>
  <variable name="x14,6" index="212" value="1"/>
  <variable name="x14,7" index="213" value="-0"/>
  <variable name="x14,8" index="214" value="-0"/>
  <variable name="x14,9" index="215" value="0"/>
  <variable name="x14,10" index="216" value="-0"/>
  <variable name="x14,11" index="217" value="-0"/>
  <variable name="x14,12" index="218" value="-0"/>
  <variable name="x14,13" index="219" value="-0"/>
  <variable name="x14,14" index="220" value="-0"/>
  <variable name="x14,15" index="221" value="-0"/>
  <variable name="x14,16" index="222" value="0"/>
  <variable name="x14,17" index="223" value="0"/>
  <variable name="x14,18" index="224" value="0"/>
  <variable name="x15,6" index="225" value="0"/>
  <variable name="x15,7" index="226" value="0"/>
  <variable name="x15,8" index="227" value="-0"/>
  <variable name="x15,9" index="228" value="-0"/>
  <variable name="x15,10" index="229" value="1"/>
  <variable name="x15,11" index="230" value="-0"/>
  <variable name="x15,12" index="231" value="-0"/>
  <variable name="x15,13" index="232" value="-0"/>
  <variable name="x15,14" index="233" value="-0"/>
  <variable name="x15,15" index="234" value="-0"/>
  <variable name="x15,16" index="235" value="-0"/>
  <variable name="x15,17" index="236" value="-0"/>
  <variable name="x15,18" index="237" value="0"/>
  <variable name="x16,11" index="238" value="-0"/>
  <variable name="x16,12" index="239" value="1"/>
  <variable name="x16,13" index="240" value="-0"/>
  <variable name="x16,14" index="241" value="0"/>
  <variable name="x16,15" index="242" value="-0"/>
  <variable name="x16,16" index="243" value="0"/>
  <variable name="x16,17" index="244" value="-0"/>
  <variable name="x16,18" index="245" value="-0"/>
  <variable name="x17,1" index="246" value="1"/>
  <variable name="x17,2" index="247" value="0"/>
  <variable name="x17,3" index="248" value="0"/>
  <variable name="x17,4" index="249" value="0"/>
  <variable name="x17,5" index="250" value="0"/>
  <variable name="x17,6" index="251" value="0"/>
  <variable name="x17,7" index="252" value="0"/>
  <variable name="x17,8" index="253" value="0"/>
  <variable name="x17,9" index="254" value="0"/>
  <variable name="x17,10" index="255" value="0"/>
  <variable name="x17,11" index="256" value="0"/>
  <variable name="x17,12" index="257" value="0"/>
  <variable name="x17,13" index="258" value="0"/>
  <variable name="x17,14" index="259" value="0"/>
  <variable name="x17,15" index="260" value="0"/>
  <variable name="x17,16" index="261" value="0"/>
  <variable name="x17,17" index="262" value="0"/>
  <variable name="x17,18" index="263" value="0"/>
  <variable name="x2,3" index="264" value="0"/>
  <variable name="x14,3" index="265" value="0"/>
  <variable name="x10,4" index="266" value="0"/>
  <variable name="x5,7" index="267" value="0"/>
 </variables>
</CPLEXSolution>
